%%% static parameters %%%
timespan = 1;
Fact = [3];
Distr1 = [10];
Distr2 = [20];
Clients_N = [40];
Demand_W = [15];
Lt0 = [4];
Lt1 = [4];
SS_ = [0.85];
DS_D = [7];
K = [200];
MA = [500];
%%% dynamic parameters %%%
lost_ratio_sales_ret_th = 0.7631325958658541;
lost_ratio_sales_ret_w = 85;
lost_ratio_sales_dis_th = 0.5442677830893434;
lost_ratio_sales_dis_w = 35;
lost_ratio_sales_fac_th = 0.22321778448027885;
lost_ratio_sales_fac_w = 59;
stock_customer_MA_mean_relative_th = 0.8198517472205465;
stock_customer_MA_mean_relative_w = 88;
stock_distributor_MA_mean_relative_th = 0.7920300875470546;
stock_distributor_MA_mean_relative_w = 2;
stock_retailer_MA_mean_relative_th = 0.9168249234603751;
stock_retailer_MA_mean_relative_w = 48;
stock_factory_MA_mean_relative_th = 0.0515152478860369;
stock_factory_MA_mean_relative_w = 4;
